NAME: A-n54-k7-C18-V3
TYPE: SoftCluVRP
DIMENSION:  54 
VEHICLES:  3 
GVRP_SETS:  18 
CAPACITY:  100 
EDGE_WEIGHT_TYPE: EUC_2D
NODE_COORD_SECTION 
1 61.000000 5.000000
2 85.000000 53.000000
3 17.000000 57.000000
4 49.000000 93.000000
5 69.000000 11.000000
6 87.000000 15.000000
7 49.000000 39.000000
8 87.000000 23.000000
9 19.000000 83.000000
10 69.000000 87.000000
11 69.000000 43.000000
12 49.000000 67.000000
13 17.000000 61.000000
14 45.000000 61.000000
15 21.000000 53.000000
16 71.000000 37.000000
17 53.000000 23.000000
18 77.000000 63.000000
19 89.000000 7.000000
20 21.000000 83.000000
21 77.000000 25.000000
22 85.000000 95.000000
23 43.000000 93.000000
24 75.000000 25.000000
25 1.000000 43.000000
26 7.000000 7.000000
27 81.000000 69.000000
28 23.000000 57.000000
29 81.000000 15.000000
30 77.000000 35.000000
31 49.000000 3.000000
32 21.000000 93.000000
33 41.000000 37.000000
34 71.000000 91.000000
35 31.000000 13.000000
36 69.000000 33.000000
37 91.000000 47.000000
38 13.000000 69.000000
39 65.000000 75.000000
40 91.000000 27.000000
41 9.000000 85.000000
42 15.000000 19.000000
43 7.000000 37.000000
44 61.000000 11.000000
45 59.000000 83.000000
46 85.000000 69.000000
47 15.000000 29.000000
48 1.000000 13.000000
49 1.000000 83.000000
50 85.000000 31.000000
51 95.000000 25.000000
52 5.000000 33.000000
53 51.000000 11.000000
54 51.000000 85.000000
GVRP_SET_SECTION 
 1 49  41 -1
 2  19  6  29  51 -1
 3  22  34 -1
 4  26  48 -1
 5  7  17  33 -1
 6  23  4  54 -1
 7  37  2 -1
 8  25  43  52 -1
 9  31  44  53 -1
 10  39  10  45 -1
 11  28  3  13  15  38 -1
 12  24  5  8  21  30  36  40  50 -1
 13  14  12 -1
 14  32  9  20 -1
 15  35 -1
 16  46  18  27 -1
 17  47  42 -1
 18  11  16 -1
 DEMAND_SECTION
 1 16 
 2 10 
 3 15 
 4 18 
 5 14 
 6 24 
 7 14 
 8 10 
 9 11 
 10 19 
 11 14 
 12 8 
 13 5 
 14 14 
 15 2 
 16 11 
 17 4 
 18 10 
EOF
